GLPSOL: GLPK LP/MIP Solver, v4.55
Parameter(s) specified in the command line:
 -m tmp.mod
Reading model section from tmp.mod...
Reading data section from tmp.mod...
5779 lines were read
Generating obj...
Generating kirhoff...
Generating init_charge...
Generating batt_size...
Model has been successfully generated
GLPK Simplex Optimizer, v4.55
4543 rows, 9696 columns, 20712 non-zeros
Preprocessing...
4350 rows, 9528 columns, 20268 non-zeros
Scaling...
 A: min|aij| =  1.000e+00  max|aij| =  1.000e+00  ratio =  1.000e+00
Problem data seem to be well scaled
Constructing initial basis...
Size of triangular part is 3882
      0: obj =   0.000000000e+00  infeas =  1.069e+03 (468)
    500: obj =   1.200000000e+01  infeas =  5.750e+02 (292)
   1000: obj =   6.700000000e+01  infeas =  1.690e+02 (145)
*  1495: obj =   1.550000000e+02  infeas =  0.000e+00 (98)
*  1500: obj =   1.550000000e+02  infeas =  0.000e+00 (98)
*  2000: obj =   8.900000000e+01  infeas =  0.000e+00 (74)
*  2281: obj =   5.100000000e+01  infeas =  0.000e+00 (65)
OPTIMAL LP SOLUTION FOUND
Time used:   0.8 secs
Memory used: 18.3 Mb (19154070 bytes)
#OUTPUT:
51
0 3 -3 0 3 0 -4 -11 0 -7 0 -10 0 -4 0 4 0 0 0 0 -4 0 -1 0 0 0 0 0 -1 0 -4 0 0 0 0 0 -1 0 0 0 0 0 0 0 0 0 0 0 0 0 0 0 -1 0 0 0 0 0 0 0 0 0 0 0 0 0 0 0 0 0 -1 0 0 0 0 0 0 0 0 0 0 0 0 0 0 0 0 0 0 0 0 0 0 0 0 0 0 0 0 0 0 -1 0 0 0 0 -1 0 0 4 0 0 0 0 0 0 0 -1 0 0 0 0 0 0 0 0 0 0 0 0 0 0 0 0 0 0 0 0 0 0 0 4 0 0 0 0 0 -10 0 0 0 0 -1 0 0 0 1 0 0 0 0 0 0 -4 0 0 0 0 0 0 0 0 0 0 0 0 0 0 0 0 0 0 0 0 0 0 0 0 0 0 0 0 0 0 0 0 0 0 0 0 0 0 0 0 0 0 0 -1 0 0 0 0 0 0 0 0 0 0 0 0 0 0 0 0 -1 0 0 1 0 0 1 0 -1 0 0 0 0 0 0 0 0 0 0 0 0 0 0 0 0 0 0 0 0 0 0 0 0 0 0 0 0 4 0 0 -10 0 3 0 -1 0 0 0 0 0 0 0 0 0 0 0 0 1 0 0 1 0 0 0 0 0 0 0 0 0 0 0 0 0 0 0 0 0 0 0 0 0 0 0 0 0 0 0 0 0 0 0 0 0 0 0 0 0 0 -1 0 0 0 0 0 0 0 0 0 0 0 0 0 0 0 0 0 0 0 0 0 0 0 0 0 -5 1 0 0 0 0 0 0 0 0 0 0 0 0 0 0 0 0 0 0 0 1 0 0 0 0 0 0 0 0 0 0 0 0 0 -1 0 0 0 0 0 0 0 0 0 0 0 0 0 0 0 0 0 0 0 0 0 0 0 0 0 0 0 0 0 0 0 0 0 0 0 0 0 0 0 0 0 0 0 0 0 0 0 0 0 0 0 0 0 0 0 0 0 0 0 0 0 0 0 0 0 0 0 0 0 0 0 0 0 0 0 0 0 0 0 0 0 0 0 0 0 0 0 0 0 0 0 0 0 0 0 0 0 0 0 0 0 0 0 0 0 0 0 0 0 0 0 0 0 0 0 0 0 0 0 0 0 0 0 0 0 0 0 -1 0 0 0 0 0 0 0 0 0 0 0 0 0 0 0 0 0 0 0 0 0 0 0 0 0 0 0 0 0 0 0 0 0 0 0 0 0 0 0 0 0 0 0 -4 0 0 0 0 0 0 0 0 0 0 0 5 0 0 0 0 0 0 0 0 0 0 -4 4 0 -8 0 0 0 0 0 0 0 4 0 0 0 -1 0 0 -1 1 -4 0 10 -8 1 0 0 0 -1 0 0 0 0 0 0 0 0 -1 0 0 0 0 0 0 0 0 0 5 0 0 -1 0 0 0 0 0 0 0 0 0 0 0 0 0 0 0 0 0 0 0 0 1 -1 0 0 0 0 0 0 0 0 0 0 0 0 0 0 0 0 0 0 0 0 0 0 0 0 0 0 0 0 0 0 0 1 0 0 0 0 0 0 0 0 0 0 0 0 0 0 0 0 0 0 4 0 0 0 0 -5 0 0 0 0 0 0 0 0 
-23 3 -31 0 4 0 0 -43 0 0 0 0 0 0 0 0 0 0 -1 -30 -3 0 -2 0 0 0 4 0 -2 0 0 0 0 0 0 0 -1 0 0 10 0 3 6 0 0 0 0 0 0 0 0 0 -1 0 0 -5 -3 0 1 0 3 0 0 0 0 0 0 0 0 5 -1 0 0 0 0 1 0 0 0 0 3 0 2 0 0 0 0 0 0 0 0 0 0 -18 0 0 0 0 0 0 0 -1 0 0 0 0 0 0 0 0 0 0 0 0 0 0 0 0 0 1 -18 0 1 0 0 0 0 0 0 0 0 0 0 0 0 0 0 0 0 0 0 0 0 0 0 0 0 0 0 0 0 0 0 0 0 0 0 0 0 0 0 0 0 0 0 0 0 -3 0 0 0 0 0 0 0 1 0 0 -3 0 0 0 0 0 0 0 0 0 0 0 0 0 0 0 -5 0 0 0 0 0 0 0 0 0 0 3 0 0 0 0 0 0 0 0 0 0 0 0 0 0 0 0 0 0 -1 0 0 -1 0 0 0 0 0 0 0 0 0 0 0 0 0 0 0 0 0 0 0 0 0 0 0 0 0 0 0 0 0 0 0 0 0 0 0 0 0 0 0 0 0 0 0 0 0 0 0 0 0 0 0 0 0 0 0 0 -1 0 0 0 0 0 -6 0 0 0 0 0 1 0 0 0 0 0 0 0 0 0 0 0 0 0 0 0 0 0 0 1 0 0 0 0 0 0 0 0 0 0 0 0 0 0 0 0 0 0 0 0 0 0 0 0 0 0 0 0 0 0 0 0 0 0 0 0 0 0 0 0 0 0 0 0 0 0 0 0 0 0 0 0 0 0 0 0 -3 0 0 0 0 0 20 0 0 0 0 0 -1 0 0 2 0 0 0 0 0 5 0 0 0 0 0 0 0 0 0 0 0 0 0 0 0 0 0 0 0 0 0 0 0 0 -2 0 0 0 0 0 0 0 0 0 0 0 0 0 0 0 0 0 0 43 0 0 0 0 0 0 0 0 1 0 0 0 0 0 0 43 0 0 0 0 0 0 0 0 0 0 0 0 0 0 0 0 0 0 0 0 0 0 0 0 0 0 0 0 0 0 0 0 0 0 0 0 0 0 0 -43 0 0 0 0 0 0 0 0 2 0 0 0 0 0 0 0 0 0 0 0 0 0 0 0 0 0 0 -22 0 0 0 0 6 0 0 2 0 0 0 0 0 0 0 0 0 0 0 0 0 0 0 0 0 0 0 0 0 0 0 0 0 0 0 0 0 0 0 0 0 0 -5 0 0 0 0 0 0 0 0 0 0 0 0 0 0 0 3 0 0 0 0 0 0 0 0 0 0 0 0 0 0 0 -3 0 1 0 0 0 0 0 0 0 0 1 0 0 0 0 0 0 0 -1 0 0 0 0 0 0 0 0 0 0 0 0 0 0 3 0 1 0 0 0 0 0 0 21 0 0 0 0 0 0 0 0 0 0 0 0 0 -6 5 0 0 0 0 0 0 0 0 0 0 0 0 0 0 0 0 0 0 0 0 0 43 0 0 0 0 0 0 0 0 0 20 2 -1 0 0 -5 0 -2 0 0 0 0 0 0 0 0 0 0 0 5 0 0 0 0 0 0 0 0 0 0 
-42 3 -45 -9 4 0 -6 -49 0 -49 0 -16 -7 -6 0 0 -9 1 4 -32 6 -1 -2 3 0 0 -4 0 -2 -2 -5 0 0 0 0 -7 -2 -5 0 -1 0 -2 0 0 0 0 0 0 0 0 0 -2 -2 0 -6 -13 -3 0 -1 0 0 0 -3 0 0 0 0 0 -1 0 -1 -1 -1 0 0 -6 0 0 0 -1 -4 0 -1 0 -1 -6 0 7 0 0 0 0 0 -50 0 0 0 0 0 0 0 -1 0 0 0 0 -2 0 0 0 4 0 0 0 1 1 0 -32 0 -1 44 0 3 -9 0 0 0 0 0 0 0 4 0 0 0 1 0 0 0 0 0 4 0 0 0 0 0 -4 -3 0 4 0 2 0 -10 0 7 1 0 0 -1 0 -6 3 0 2 0 -5 0 0 0 -7 0 0 -1 6 0 4 -5 0 0 0 6 0 9 0 0 -1 -2 -2 0 0 0 0 -1 0 0 0 1 0 -38 0 0 0 0 0 0 2 -1 0 0 0 0 0 0 0 0 0 0 0 0 -1 0 0 -1 0 0 1 0 0 4 0 0 0 0 0 0 0 0 0 -4 0 0 -1 0 1 0 0 0 0 0 0 0 0 0 0 2 -5 0 0 0 0 0 0 0 6 15 -6 0 -1 -1 0 0 0 0 0 0 0 0 0 0 0 0 0 1 0 7 0 0 0 -3 -7 1 2 0 0 1 0 0 0 0 0 -1 0 0 0 4 0 0 0 0 0 0 0 0 6 0 -3 0 0 0 -1 0 -1 -1 0 0 0 0 0 0 0 0 0 1 0 0 0 0 0 1 0 0 0 0 0 0 0 0 -5 0 0 0 0 0 0 0 0 -6 1 0 0 0 0 0 0 0 0 0 0 4 0 0 0 0 0 0 0 0 0 1 0 0 0 -1 0 0 0 2 0 1 0 0 0 0 0 0 0 0 -6 0 0 0 0 0 0 0 0 0 0 0 0 0 0 1 0 0 1 1 0 0 0 0 0 0 0 0 0 0 0 -4 0 0 0 2 -42 0 38 0 0 -7 0 0 0 0 0 3 1 0 -2 0 0 0 38 0 0 0 0 0 0 0 0 0 0 0 0 0 0 0 0 0 0 0 -4 0 0 -5 0 0 -1 0 0 0 0 0 0 0 0 0 0 0 0 0 -38 0 0 0 0 0 0 0 0 -1 -3 0 0 0 0 0 0 0 0 0 0 0 0 0 0 0 0 0 0 0 0 0 0 0 0 0 -1 0 0 0 0 0 0 0 0 0 0 0 0 0 0 0 -42 0 0 0 0 0 0 0 0 0 0 -2 0 0 0 0 0 1 0 -2 0 0 0 5 0 0 0 0 6 0 0 0 0 0 0 -6 0 -27 0 0 0 0 3 0 0 -3 0 1 4 -1 -3 0 2 1 0 0 0 -20 1 0 0 0 -1 0 0 -3 -4 0 -4 4 -6 -2 0 0 0 0 0 0 0 0 0 5 0 6 -4 0 0 1 -2 -1 0 0 0 0 44 0 0 0 0 -1 0 4 0 -2 0 10 -3 0 -3 0 0 -1 2 0 0 0 0 0 4 0 5 0 0 1 0 0 0 0 0 0 0 38 3 0 0 0 0 0 0 0 0 0 0 -1 -1 4 -2 0 1 0 0 0 -34 0 0 0 0 2 0 -1 2 0 -5 -6 0 0 0 0 0 0 0 
-19 -3 -11 -1 0 0 -6 -49 -2 -7 1 -9 0 -4 -4 -4 -3 0 -2 -6 0 -4 0 0 0 0 -4 0 0 0 -4 0 0 0 0 0 0 4 0 -10 0 0 -4 1 0 0 0 0 0 0 0 0 0 0 0 -1 0 0 0 0 4 0 -3 0 0 0 0 0 0 -5 0 0 0 0 1 0 0 0 0 0 0 0 0 0 0 0 0 3 -1 0 0 0 0 -14 -1 1 0 0 0 0 0 0 0 0 0 0 0 0 -4 -4 0 0 0 0 0 0 0 0 0 0 -14 -8 -1 -2 0 0 0 0 0 0 0 0 0 0 0 0 0 0 0 0 0 0 0 0 0 0 0 -6 0 0 -2 0 0 0 0 0 0 2 4 0 0 0 0 0 0 0 0 0 0 0 0 0 1 0 0 0 0 -2 0 0 0 0 0 0 0 0 0 0 0 0 0 0 0 0 8 0 0 0 3 1 0 0 0 0 0 -4 0 0 0 0 0 0 0 0 0 0 0 0 0 0 0 -1 0 0 0 0 0 0 0 0 0 0 2 0 0 0 0 0 0 0 0 0 0 0 0 0 0 0 0 0 0 0 0 0 0 0 0 0 0 0 0 6 0 0 -6 0 4 0 2 0 0 0 0 0 0 0 0 0 0 0 -10 0 0 0 0 0 0 0 0 0 6 0 0 0 0 0 0 0 0 0 0 0 0 0 0 0 4 0 0 2 0 0 0 0 4 0 0 0 0 0 0 0 0 0 0 0 -4 0 0 0 0 0 0 0 0 0 0 0 0 -1 0 0 0 0 0 0 0 0 0 0 0 0 0 6 0 0 0 0 0 0 0 0 0 0 0 0 0 0 0 0 0 0 0 0 0 0 0 0 26 0 0 0 0 0 0 0 0 -2 0 0 0 0 0 -5 0 0 0 0 0 0 0 0 0 0 0 0 0 0 0 0 0 0 0 0 0 0 0 0 0 0 0 0 0 0 0 0 0 0 0 0 0 0 0 0 0 0 0 42 0 0 0 0 0 0 0 0 -1 0 0 0 0 0 0 42 0 0 0 0 0 0 0 0 0 0 0 0 0 0 0 0 0 0 0 0 0 0 0 -6 0 0 0 0 0 0 0 0 0 -2 0 0 0 0 0 -42 0 0 0 0 0 0 0 0 0 0 0 0 0 2 0 0 0 0 0 0 0 0 0 0 0 0 0 -24 0 0 0 0 -4 0 0 0 0 0 0 0 0 0 0 0 0 0 0 0 0 0 0 0 0 0 0 0 0 0 0 0 0 0 0 0 0 0 0 0 0 0 5 0 0 0 0 0 0 0 0 0 0 0 0 0 -2 0 0 1 -7 0 0 0 0 0 0 0 0 0 0 0 -1 -1 4 0 0 -6 0 6 -4 -2 0 0 0 0 0 0 0 0 0 -4 0 0 0 0 0 0 0 -1 0 0 0 0 0 0 0 0 0 0 0 0 0 0 0 0 0 18 0 0 0 0 0 0 0 0 0 0 0 0 0 6 -5 0 0 0 0 0 0 0 0 0 0 0 6 0 0 0 0 2 0 0 0 0 42 0 0 -2 0 0 0 0 0 0 26 -2 -1 0 4 1 0 0 0 0 0 0 0 0 0 0 0 0 0 -5 0 0 0 0 2 0 0 0 0 0 
-17 -3 -5 0 -4 0 -2 -44 -2 0 0 -30 -16 0 0 0 -8 0 -2 -4 0 0 0 4 -1 0 4 0 0 0 0 0 0 0 0 -22 0 5 0 -1 0 0 -1 0 0 0 0 0 0 0 0 0 0 0 -1 0 -37 0 0 0 5 0 -4 0 0 0 0 0 0 -5 0 0 0 0 -9 0 0 0 0 1 6 0 0 0 0 -1 0 0 0 0 0 0 0 9 0 -7 0 0 0 0 0 0 0 0 0 0 0 0 1 0 4 0 0 0 0 0 0 -2 0 0 9 0 0 0 0 0 0 0 0 0 0 0 0 0 0 0 6 0 0 0 0 0 0 0 0 0 0 -21 -1 0 0 2 -2 0 4 0 0 -10 0 0 1 0 4 -1 0 0 0 5 0 0 0 0 1 0 0 0 0 0 0 0 0 -2 1 0 0 0 0 0 0 0 0 0 0 0 0 0 0 0 1 1 0 0 0 -1 0 0 0 -2 0 0 0 0 0 0 0 0 0 0 0 0 0 3 0 0 0 0 0 0 0 0 0 0 0 0 -1 0 0 0 0 1 4 0 0 1 0 0 0 2 0 0 0 0 0 0 0 0 0 -4 0 0 0 -2 0 0 -21 -4 8 4 0 1 1 0 0 0 0 0 0 0 0 0 0 0 0 0 0 0 -1 0 0 0 5 0 0 0 0 2 0 0 0 0 0 0 0 0 -3 0 0 0 0 -2 0 0 0 0 0 0 0 -41 0 0 0 0 0 0 1 0 1 0 0 0 1 0 0 0 0 0 0 0 0 0 0 0 0 0 0 0 0 0 0 5 0 0 0 0 0 0 0 0 4 0 0 0 0 0 0 0 0 0 0 0 0 0 0 0 0 0 0 0 1 0 -1 0 0 0 0 0 0 -3 0 0 0 0 1 -5 0 0 0 0 1 8 0 0 0 0 -2 2 0 0 0 0 0 0 0 0 0 9 0 0 0 0 0 0 0 0 0 0 0 0 0 0 0 0 0 0 0 0 0 11 0 0 0 0 0 0 0 0 0 -1 0 0 0 0 0 11 0 0 0 0 0 0 0 0 0 0 0 0 0 0 0 0 0 0 0 0 0 0 -4 0 2 0 0 0 0 0 0 4 0 -7 0 0 0 0 0 -13 0 -5 0 0 0 0 0 0 0 -41 0 0 0 0 0 0 0 0 0 0 4 0 0 0 0 0 0 -3 0 0 0 0 0 0 0 0 0 0 0 0 0 0 0 0 0 0 0 0 0 0 0 0 0 0 0 0 0 0 0 0 0 0 -1 0 0 0 0 0 0 0 -1 0 2 0 -8 0 0 0 0 1 0 0 0 0 2 0 -4 0 0 0 0 0 0 1 -2 0 1 0 0 0 -1 -4 0 -2 0 2 0 21 0 -1 0 0 0 0 0 0 -3 4 0 4 -4 0 0 0 0 0 -1 0 0 0 0 0 -5 0 -4 0 0 0 0 0 0 0 0 0 -1 0 0 -2 0 0 2 0 0 0 0 0 0 0 0 5 -5 0 1 0 0 0 0 0 0 0 0 4 0 -2 0 -4 0 -2 9 0 0 0 13 -43 0 0 0 0 0 0 -4 0 1 2 -1 1 0 0 0 0 0 0 0 0 0 0 0 0 1 0 0 1 -2 8 -1 0 -2 0 0 0 0 0 
0 0 0 0 0 0 0 0 0 0 0 0 0 0 0 0 0 0 0 0 0 0 0 0 0 0 0 0 0 0 0 0 0 0 0 0 0 0 0 0 0 0 0 0 0 0 0 0 0 0 0 0 0 0 0 0 0 0 0 0 0 0 0 0 0 0 0 0 0 0 0 0 0 0 0 0 0 0 0 0 0 0 0 0 0 0 0 0 0 0 0 0 0 0 0 0 0 0 0 0 0 0 0 0 0 0 0 0 0 0 0 0 0 0 0 0 0 0 0 0 0 0 0 0 0 0 0 0 0 0 0 0 0 0 0 0 0 0 0 0 0 0 0 0 0 0 0 0 0 0 0 0 0 0 0 0 0 0 0 0 0 0 0 0 0 0 0 0 0 0 0 0 0 0 0 0 0 0 0 0 0 0 0 0 0 0 0 0 0 0 0 0 0 0 0 0 0 0 0 0 0 0 0 0 0 0 0 0 0 0 0 0 0 0 0 0 0 0 0 0 0 0 0 0 0 0 0 0 0 0 0 0 0 0 0 0 0 0 0 0 0 0 0 0 0 0 0 0 0 0 0 0 0 0 0 0 0 0 0 0 0 0 0 0 0 0 0 0 0 0 0 0 0 0 0 0 0 0 0 0 0 0 0 0 0 0 0 0 0 0 0 0 0 0 0 0 0 0 0 0 0 0 0 0 0 0 0 0 0 0 0 0 0 0 0 0 0 0 0 0 0 0 0 0 0 0 0 0 0 0 0 0 0 0 0 0 0 0 0 0 0 0 0 0 0 0 0 0 0 0 0 0 0 0 0 0 0 0 0 0 0 0 0 0 0 0 0 0 0 0 0 0 0 0 0 0 0 0 0 0 0 0 0 0 0 0 0 0 0 0 0 0 0 0 0 0 0 0 0 0 0 0 0 0 0 0 0 0 0 0 0 0 0 0 0 0 0 0 0 0 0 0 0 0 0 0 0 0 0 0 0 0 0 0 0 0 0 0 0 0 0 0 0 0 0 0 0 0 0 0 0 0 0 0 0 0 0 0 0 0 0 0 0 0 0 0 0 0 0 0 0 0 0 0 0 0 0 0 0 0 0 0 0 0 0 0 0 0 0 0 0 0 0 0 0 0 0 0 0 0 0 0 0 0 0 0 0 0 0 0 0 0 0 0 0 0 0 0 0 0 0 0 0 0 0 0 0 0 0 0 0 0 0 0 0 0 0 0 0 0 0 0 0 0 0 0 0 0 0 0 0 0 0 0 0 0 0 0 0 0 0 0 0 0 0 0 0 0 0 0 0 0 0 0 0 0 0 0 0 0 0 0 0 0 0 0 0 0 0 0 0 0 0 0 0 0 0 0 0 0 0 0 0 0 0 0 0 0 0 0 0 0 0 0 0 0 0 0 0 0 0 0 0 0 0 0 0 0 0 0 0 0 0 0 0 0 0 0 0 0 0 0 0 0 0 0 0 0 0 0 0 0 0 0 0 0 0 0 0 0 0 0 0 0 0 0 0 0 0 0 0 0 0 0 0 0 0 0 0 0 0 0 0 0 0 0 0 0 0 0 0 0 0 0 0 0 0 0 0 0 0 0 0 0 0 0 0 0 0 0 0 0 0 0 0 0 
#OUTPUT END
Model has been successfully processed
